#----------------------------------------   as    --------------
pair_coeff 1 1   1252941.600000 3.855400 1920.770000 41.334400 # CmU CmU  EXP-6+12
pair_coeff 2 2   3592.400000 2.973000 282.230000 934.988020 # CN CN  EXP-6+12
pair_coeff 3 3   8137.700000 3.529400 154.480000 119.325807 # N+ N+  EXP-6+12
pair_coeff 4 4   22752.700000 3.147700 552.960000 471.221338 # Ccn Ccn  EXP-6+12
pair_coeff 5 5   1982.400000 2.325600 948.200000 17812.494029 # CmN CmN  EXP-6+12
pair_coeff 6 6   3255.100000 5.853700 2.970000 0.275410 # Hc Hc  EXP-6+12
pair_coeff 7 7   108283.000000 3.640500 560.530000 82.264513 # Cm Cm  EXP-6+12
pair_coeff 8 8   8621.900000 2.500000 1915.670000 7479.367155 # S- S-  EXP-6+12
pair_coeff 9 9   7324.000000 2.790700 568.920000 1997.961560 # N- N-  EXP-6+12
pair_coeff 10 10   7117.900000 3.417400 150.720000 175.709473 # F F  EXP-6+12
pair_coeff 11 11   15923.100000 3.644600 239.070000 81.160835 # O= O=  EXP-6+12
pair_coeff 1 2   50837.729249 3.232612 736.273670 342.375021 # CN CmU  EXP-6+12
pair_coeff 1 3   97529.887406 3.667516 544.720616 75.280080 # N+ CmU  EXP-6+12
pair_coeff 2 3   4762.089295 3.171443 208.803473 430.587588 # N+ CN  EXP-6+12
pair_coeff 1 4   141781.989742 3.383669 1030.586716 197.920113 # Ccn CmU  EXP-6+12
pair_coeff 2 4   8909.795309 3.051668 395.046707 683.435718 # Ccn CN  EXP-6+12
pair_coeff 3 4   12842.606622 3.301121 292.269158 266.199920 # Ccn N+  EXP-6+12
pair_coeff 1 5   20871.577936 2.590009 1349.545892 4892.487630 # CmN CmU  EXP-6+12
pair_coeff 2 5   2078.491210 2.522174 517.310821 6727.364847 # CmN CN  EXP-6+12
pair_coeff 3 5   2124.285522 2.576394 382.724360 5211.908014 # CmN N+  EXP-6+12
pair_coeff 4 5   4659.279059 2.545650 724.097143 6019.516712 # CmN Ccn  EXP-6+12
pair_coeff 1 6   33737.818622 4.271314 75.529378 12.089454 # Hc CmU  EXP-6+12
pair_coeff 2 6   880.861050 3.327628 28.952083 241.839337 # Hc CN  EXP-6+12
pair_coeff 3 6   2152.759468 3.930756 21.419748 32.766639 # Hc N+  EXP-6+12
pair_coeff 4 6   2613.020564 3.519135 40.525192 123.570216 # Hc Ccn  EXP-6+12
pair_coeff 5 6   317.334382 2.608691 53.067448 4488.212839 # Hc CmN  EXP-6+12
pair_coeff 1 7   362951.312229 3.737223 1037.617082 60.056007 # Cm CmU  EXP-6+12
pair_coeff 2 7   16568.788001 3.195688 397.741602 392.982105 # Cm CN  EXP-6+12
pair_coeff 3 7   29556.731032 3.581942 294.262934 99.936150 # Cm N+  EXP-6+12
pair_coeff 4 7   45258.593937 3.333455 556.732134 236.815348 # Cm Ccn  EXP-6+12
pair_coeff 5 7   7152.754940 2.581949 729.036725 5078.944985 # Cm CmN  EXP-6+12
pair_coeff 6 7   8537.988298 4.048194 40.801643 23.014921 # Cm Hc  EXP-6+12
pair_coeff 1 8   52755.384668 2.772818 1918.218305 2158.184002 # S- CmU  EXP-6+12
pair_coeff 2 8   4889.671299 2.668077 735.295549 3425.814067 # S- CN  EXP-6+12
pair_coeff 3 8   5286.181850 2.751073 543.996968 2372.029442 # S- N+  EXP-6+12
pair_coeff 4 8   11218.360749 2.703348 1029.217607 2926.321374 # S- Ccn  EXP-6+12
pair_coeff 5 8   4038.842321 2.401859 1347.753054 12094.147644 # S- CmN  EXP-6+12
pair_coeff 6 8   820.379671 2.803327 75.429039 1892.603653 # S- Hc  EXP-6+12
pair_coeff 7 8   17911.634640 2.759896 1036.238633 2282.608917 # S- Cm  EXP-6+12
pair_coeff 1 9   63523.967748 3.063075 1045.353753 653.511622 # N- CmU  EXP-6+12
pair_coeff 2 9   5038.340058 2.871822 400.707239 1416.624204 # N- CN  EXP-6+12
pair_coeff 3 9   6133.907570 3.020362 296.457015 773.457243 # N- N+  EXP-6+12
pair_coeff 4 9   12110.582902 2.932461 560.883235 1102.445732 # N- Ccn  EXP-6+12
pair_coeff 5 9   3303.791620 2.487699 734.472562 7935.426260 # N- CmN  EXP-6+12
pair_coeff 6 9   1045.839784 3.126367 41.105868 511.288034 # N- Hc  EXP-6+12
pair_coeff 7 9   21091.426721 3.037473 564.709419 722.764026 # N- Cm  EXP-6+12
pair_coeff 8 9   7532.597120 2.617910 1043.965026 4302.172580 # N- S-  EXP-6+12
pair_coeff 1 10   88576.522682 3.591249 538.050606 96.872134 # F CmU  EXP-6+12
pair_coeff 2 10   4645.112255 3.142679 206.246711 480.335576 # F CN  EXP-6+12
pair_coeff 3 10   7575.260830 3.470245 152.588419 146.158189 # F N+  EXP-6+12
pair_coeff 4 10   12348.566216 3.263362 288.690373 305.605957 # F Ccn  EXP-6+12
pair_coeff 5 10   2153.749540 2.569524 378.037966 5381.616296 # F CmN  EXP-6+12
pair_coeff 6 10   1842.560770 3.811159 21.157467 47.474443 # F Hc  EXP-6+12
pair_coeff 7 10   27270.076053 3.516685 290.659735 124.607252 # F Cm  EXP-6+12
pair_coeff 8 10   5318.730064 2.740247 537.335819 2486.961023 # F S-  EXP-6+12
pair_coeff 9 10   6065.148698 2.999759 292.826950 839.669666 # F N-  EXP-6+12
pair_coeff 1 11   139260.998676 3.739682 677.641855 59.583844 # O= CmU  EXP-6+12
pair_coeff 2 11   6342.013063 3.196509 259.755127 391.772838 # O= CN  EXP-6+12
pair_coeff 3 11   11330.567268 3.583768 192.175788 99.326798 # O= N+  EXP-6+12
pair_coeff 4 11   17331.274760 3.334558 363.587881 235.876826 # O= Ccn  EXP-6+12
pair_coeff 5 11   2734.806237 2.582133 476.115715 5074.595238 # O= CmN  EXP-6+12
pair_coeff 6 11   3283.936843 4.052503 26.646536 22.722982 # O= Hc  EXP-6+12
pair_coeff 7 11   41523.263086 3.642546 366.068173 81.711742 # O= Cm  EXP-6+12
pair_coeff 8 11   6849.832333 2.760190 676.741625 2279.693188 # O= S-  EXP-6+12
pair_coeff 9 11   8069.869168 3.038048 368.797647 721.123732 # O= N-  EXP-6+12
pair_coeff 10 11   10450.635332 3.518290 189.822629 123.926721 # O= F  EXP-6+12

